NAME: tsp20-22
TYPE: TSP
DIMENSION: 20
EDGE_WEIGHT_TYPE: EUC_2D
NODE_COORD_SECTION
0 83 73
1 14 68
2 12 35
3 1 27
4 1 69
5 26 79
6 67 11
7 83 29
8 79 86
9 42 83
10 70 92
11 19 74
12 2 21
13 43 16
14 62 19
15 20 2
16 21 64
17 14 56
18 68 10
19 98 42
EOF